c colouring generated by benchmark framework
p edge 500 12458
v 1 11
v 2 6
v 3 4
v 4 10
v 5 6
v 6 14
v 7 6
v 8 1
v 9 4
v 10 13
v 11 0
v 12 14
v 13 13
v 14 7
v 15 14
v 16 4
v 17 5
v 18 17
v 19 6
v 20 1
v 21 2
v 22 6
v 23 0
v 24 14
v 25 5
v 26 6
v 27 7
v 28 8
v 29 16
v 30 9
v 31 9
v 32 13
v 33 6
v 34 3
v 35 5
v 36 0
v 37 2
v 38 3
v 39 4
v 40 6
v 41 7
v 42 0
v 43 16
v 44 12
v 45 2
v 46 9
v 47 3
v 48 9
v 49 8
v 50 2
v 51 1
v 52 7
v 53 7
v 54 1
v 55 2
v 56 5
v 57 2
v 58 2
v 59 4
v 60 9
v 61 6
v 62 5
v 63 4
v 64 13
v 65 10
v 66 7
v 67 15
v 68 1
v 69 3
v 70 2
v 71 14
v 72 7
v 73 9
v 74 4
v 75 6
v 76 3
v 77 2
v 78 12
v 79 12
v 80 3
v 81 14
v 82 4
v 83 10
v 84 4
v 85 14
v 86 9
v 87 1
v 88 12
v 89 3
v 90 0
v 91 11
v 92 6
v 93 17
v 94 4
v 95 8
v 96 9
v 97 6
v 98 3
v 99 12
v 100 5
v 101 7
v 102 10
v 103 15
v 104 9
v 105 7
v 106 17
v 107 12
v 108 11
v 109 1
v 110 15
v 111 14
v 112 9
v 113 17
v 114 4
v 115 12
v 116 2
v 117 14
v 118 13
v 119 4
v 120 5
v 121 8
v 122 9
v 123 5
v 124 14
v 125 7
v 126 16
v 127 8
v 128 12
v 129 14
v 130 13
v 131 3
v 132 14
v 133 2
v 134 15
v 135 4
v 136 5
v 137 9
v 138 8
v 139 7
v 140 2
v 141 7
v 142 11
v 143 10
v 144 3
v 145 7
v 146 5
v 147 7
v 148 8
v 149 8
v 150 5
v 151 1
v 152 6
v 153 5
v 154 1
v 155 0
v 156 5
v 157 8
v 158 10
v 159 1
v 160 17
v 161 12
v 162 16
v 163 12
v 164 4
v 165 3
v 166 9
v 167 5
v 168 7
v 169 11
v 170 1
v 171 16
v 172 3
v 173 11
v 174 17
v 175 16
v 176 13
v 177 4
v 178 14
v 179 0
v 180 3
v 181 16
v 182 0
v 183 9
v 184 5
v 185 15
v 186 3
v 187 7
v 188 3
v 189 11
v 190 1
v 191 4
v 192 11
v 193 10
v 194 15
v 195 15
v 196 0
v 197 5
v 198 5
v 199 11
v 200 3
v 201 2
v 202 1
v 203 1
v 204 5
v 205 8
v 206 3
v 207 9
v 208 1
v 209 14
v 210 7
v 211 6
v 212 8
v 213 6
v 214 14
v 215 8
v 216 5
v 217 9
v 218 7
v 219 1
v 220 12
v 221 2
v 222 16
v 223 9
v 224 15
v 225 2
v 226 15
v 227 0
v 228 13
v 229 0
v 230 10
v 231 10
v 232 8
v 233 15
v 234 12
v 235 13
v 236 16
v 237 0
v 238 14
v 239 14
v 240 10
v 241 0
v 242 0
v 243 8
v 244 0
v 245 12
v 246 1
v 247 6
v 248 7
v 249 9
v 250 1
v 251 10
v 252 17
v 253 11
v 254 15
v 255 0
v 256 0
v 257 11
v 258 4
v 259 16
v 260 13
v 261 12
v 262 12
v 263 3
v 264 11
v 265 11
v 266 13
v 267 16
v 268 10
v 269 4
v 270 3
v 271 0
v 272 14
v 273 10
v 274 16
v 275 0
v 276 12
v 277 5
v 278 6
v 279 15
v 280 13
v 281 17
v 282 11
v 283 8
v 284 4
v 285 0
v 286 11
v 287 13
v 288 3
v 289 15
v 290 0
v 291 9
v 292 14
v 293 16
v 294 5
v 295 4
v 296 3
v 297 16
v 298 7
v 299 15
v 300 15
v 301 15
v 302 15
v 303 5
v 304 3
v 305 3
v 306 0
v 307 13
v 308 4
v 309 13
v 310 15
v 311 11
v 312 3
v 313 11
v 314 8
v 315 6
v 316 16
v 317 9
v 318 3
v 319 12
v 320 8
v 321 10
v 322 12
v 323 6
v 324 5
v 325 1
v 326 1
v 327 15
v 328 12
v 329 11
v 330 11
v 331 9
v 332 13
v 333 6
v 334 1
v 335 6
v 336 2
v 337 6
v 338 2
v 339 4
v 340 9
v 341 17
v 342 8
v 343 0
v 344 5
v 345 0
v 346 8
v 347 7
v 348 0
v 349 2
v 350 10
v 351 6
v 352 14
v 353 13
v 354 9
v 355 6
v 356 15
v 357 17
v 358 3
v 359 1
v 360 8
v 361 2
v 362 2
v 363 12
v 364 1
v 365 5
v 366 9
v 367 11
v 368 12
v 369 8
v 370 11
v 371 5
v 372 3
v 373 14
v 374 11
v 375 12
v 376 1
v 377 5
v 378 3
v 379 6
v 380 13
v 381 4
v 382 0
v 383 10
v 384 2
v 385 10
v 386 5
v 387 0
v 388 5
v 389 14
v 390 13
v 391 2
v 392 3
v 393 4
v 394 3
v 395 5
v 396 17
v 397 6
v 398 15
v 399 12
v 400 5
v 401 1
v 402 4
v 403 6
v 404 1
v 405 5
v 406 0
v 407 8
v 408 4
v 409 11
v 410 3
v 411 7
v 412 14
v 413 2
v 414 5
v 415 3
v 416 8
v 417 2
v 418 2
v 419 15
v 420 12
v 421 7
v 422 16
v 423 4
v 424 9
v 425 2
v 426 15
v 427 12
v 428 3
v 429 5
v 430 8
v 431 2
v 432 4
v 433 1
v 434 10
v 435 15
v 436 6
v 437 6
v 438 7
v 439 5
v 440 8
v 441 6
v 442 10
v 443 9
v 444 8
v 445 8
v 446 4
v 447 5
v 448 6
v 449 10
v 450 8
v 451 7
v 452 5
v 453 10
v 454 14
v 455 17
v 456 9
v 457 7
v 458 4
v 459 10
v 460 3
v 461 7
v 462 13
v 463 16
v 464 15
v 465 8
v 466 12
v 467 5
v 468 0
v 469 12
v 470 16
v 471 3
v 472 7
v 473 1
v 474 7
v 475 6
v 476 14
v 477 2
v 478 2
v 479 10
v 480 4
v 481 8
v 482 1
v 483 9
v 484 9
v 485 6
v 486 5
v 487 8
v 488 10
v 489 11
v 490 1
v 491 4
v 492 6
v 493 11
v 494 5
v 495 7
v 496 17
v 497 13
v 498 4
v 499 5
v 500 8
